11
0 67 17 4 2 70 36 95 54 31 61 
44 0 38 71 47 30 71 83 53 19 14 
45 7 0 23 35 22 8 58 77 29 73 
15 88 84 0 83 44 14 55 51 75 27 
17 94 69 54 0 4 78 76 75 10 76 
14 67 1 72 32 0 10 7 92 20 19 
46 74 59 97 7 39 0 1 8 90 11 
15 48 61 21 42 49 98 0 88 46 61 
11 13 21 44 96 82 95 95 0 33 16 
34 74 91 76 4 79 76 75 31 0 77 
22 26 49 12 77 69 76 89 71 88 0 
